NAME : traveling-santa-2018-prime-paths.29599.tour
COMMENT : Length = 29599
COMMENT : Found by LKH [Keld Helsgaun] Mon Jun 27 15:57:30 2022
TYPE : TOUR
DIMENSION : 100
TOUR_SECTION
1
18
77
90
36
95
69
4
35
54
14
47
68
8
55
74
44
81
98
50
73
11
76
57
3
85
56
49
19
65
34
28
96
70
64
61
60
38
12
97
16
41
29
78
86
7
94
83
24
72
31
48
25
75
6
32
27
46
99
91
23
39
21
100
63
13
2
62
87
67
80
92
52
89
53
82
37
20
51
15
42
58
40
84
5
17
30
10
22
26
45
59
33
9
79
66
71
93
88
43
-1
EOF
